* #variable= 36 #constraint= 81 #product= 504 sizeproduct= 36
min: ;
-1 x1 +1 x1 x2 x9 +1 x1 x3 x10 +1 x1 x4 x11 +1 x1 x5 x12 +1 x1 x6 x13 +1 x1 x7 x14 +1 x1 x8 x15 = 0;
+2 x1 +1 x2 x9 -1 x1 x2 x9 +1 x3 x10 -1 x1 x3 x10 +1 x4 x11 -1 x1 x4 x11 +1 x5 x12 -1 x1 x5 x12 +1 x6 x13 -1 x1 x6 x13 +1 x7 x14 -1 x1 x7 x14 +1 x8 x15 -1 x1 x8 x15 = 2;
-1 x2 +1 x2 x1 x9 +1 x2 x3 x16 +1 x2 x4 x17 +1 x2 x5 x18 +1 x2 x6 x19 +1 x2 x7 x20 +1 x2 x8 x21 = 0;
+2 x2 +1 x1 x9 -1 x2 x1 x9 +1 x3 x16 -1 x2 x3 x16 +1 x4 x17 -1 x2 x4 x17 +1 x5 x18 -1 x2 x5 x18 +1 x6 x19 -1 x2 x6 x19 +1 x7 x20 -1 x2 x7 x20 +1 x8 x21 -1 x2 x8 x21 = 2;
-1 x3 +1 x3 x1 x10 +1 x3 x2 x16 +1 x3 x4 x22 +1 x3 x5 x23 +1 x3 x6 x24 +1 x3 x7 x25 +1 x3 x8 x26 = 0;
+2 x3 +1 x1 x10 -1 x3 x1 x10 +1 x2 x16 -1 x3 x2 x16 +1 x4 x22 -1 x3 x4 x22 +1 x5 x23 -1 x3 x5 x23 +1 x6 x24 -1 x3 x6 x24 +1 x7 x25 -1 x3 x7 x25 +1 x8 x26 -1 x3 x8 x26 = 2;
-1 x4 +1 x4 x1 x11 +1 x4 x2 x17 +1 x4 x3 x22 +1 x4 x5 x27 +1 x4 x6 x28 +1 x4 x7 x29 +1 x4 x8 x30 = 0;
+2 x4 +1 x1 x11 -1 x4 x1 x11 +1 x2 x17 -1 x4 x2 x17 +1 x3 x22 -1 x4 x3 x22 +1 x5 x27 -1 x4 x5 x27 +1 x6 x28 -1 x4 x6 x28 +1 x7 x29 -1 x4 x7 x29 +1 x8 x30 -1 x4 x8 x30 = 2;
-1 x5 +1 x5 x1 x12 +1 x5 x2 x18 +1 x5 x3 x23 +1 x5 x4 x27 +1 x5 x6 x31 +1 x5 x7 x32 +1 x5 x8 x33 = 0;
+2 x5 +1 x1 x12 -1 x5 x1 x12 +1 x2 x18 -1 x5 x2 x18 +1 x3 x23 -1 x5 x3 x23 +1 x4 x27 -1 x5 x4 x27 +1 x6 x31 -1 x5 x6 x31 +1 x7 x32 -1 x5 x7 x32 +1 x8 x33 -1 x5 x8 x33 = 2;
-1 x6 +1 x6 x1 x13 +1 x6 x2 x19 +1 x6 x3 x24 +1 x6 x4 x28 +1 x6 x5 x31 +1 x6 x7 x34 +1 x6 x8 x35 = 0;
+2 x6 +1 x1 x13 -1 x6 x1 x13 +1 x2 x19 -1 x6 x2 x19 +1 x3 x24 -1 x6 x3 x24 +1 x4 x28 -1 x6 x4 x28 +1 x5 x31 -1 x6 x5 x31 +1 x7 x34 -1 x6 x7 x34 +1 x8 x35 -1 x6 x8 x35 = 2;
-1 x7 +1 x7 x1 x14 +1 x7 x2 x20 +1 x7 x3 x25 +1 x7 x4 x29 +1 x7 x5 x32 +1 x7 x6 x34 +1 x7 x8 x36 = 0;
+2 x7 +1 x1 x14 -1 x7 x1 x14 +1 x2 x20 -1 x7 x2 x20 +1 x3 x25 -1 x7 x3 x25 +1 x4 x29 -1 x7 x4 x29 +1 x5 x32 -1 x7 x5 x32 +1 x6 x34 -1 x7 x6 x34 +1 x8 x36 -1 x7 x8 x36 = 2;
-1 x8 +1 x8 x1 x15 +1 x8 x2 x21 +1 x8 x3 x26 +1 x8 x4 x30 +1 x8 x5 x33 +1 x8 x6 x35 +1 x8 x7 x36 = 0;
+2 x8 +1 x1 x15 -1 x8 x1 x15 +1 x2 x21 -1 x8 x2 x21 +1 x3 x26 -1 x8 x3 x26 +1 x4 x30 -1 x8 x4 x30 +1 x5 x33 -1 x8 x5 x33 +1 x6 x35 -1 x8 x6 x35 +1 x7 x36 -1 x8 x7 x36 = 2;
-1 x9 +1 x9 x1 x2 +1 x9 x10 x16 +1 x9 x11 x17 +1 x9 x12 x18 +1 x9 x13 x19 +1 x9 x14 x20 +1 x9 x15 x21 = 0;
+2 x9 +1 x1 x2 -1 x9 x1 x2 +1 x10 x16 -1 x9 x10 x16 +1 x11 x17 -1 x9 x11 x17 +1 x12 x18 -1 x9 x12 x18 +1 x13 x19 -1 x9 x13 x19 +1 x14 x20 -1 x9 x14 x20 +1 x15 x21 -1 x9 x15 x21 = 2;
-1 x10 +1 x10 x1 x3 +1 x10 x9 x16 +1 x10 x11 x22 +1 x10 x12 x23 +1 x10 x13 x24 +1 x10 x14 x25 +1 x10 x15 x26 = 0;
+2 x10 +1 x1 x3 -1 x10 x1 x3 +1 x9 x16 -1 x10 x9 x16 +1 x11 x22 -1 x10 x11 x22 +1 x12 x23 -1 x10 x12 x23 +1 x13 x24 -1 x10 x13 x24 +1 x14 x25 -1 x10 x14 x25 +1 x15 x26 -1 x10 x15 x26 = 2;
-1 x11 +1 x11 x1 x4 +1 x11 x9 x17 +1 x11 x10 x22 +1 x11 x12 x27 +1 x11 x13 x28 +1 x11 x14 x29 +1 x11 x15 x30 = 0;
+2 x11 +1 x1 x4 -1 x11 x1 x4 +1 x9 x17 -1 x11 x9 x17 +1 x10 x22 -1 x11 x10 x22 +1 x12 x27 -1 x11 x12 x27 +1 x13 x28 -1 x11 x13 x28 +1 x14 x29 -1 x11 x14 x29 +1 x15 x30 -1 x11 x15 x30 = 2;
-1 x12 +1 x12 x1 x5 +1 x12 x9 x18 +1 x12 x10 x23 +1 x12 x11 x27 +1 x12 x13 x31 +1 x12 x14 x32 +1 x12 x15 x33 = 0;
+2 x12 +1 x1 x5 -1 x12 x1 x5 +1 x9 x18 -1 x12 x9 x18 +1 x10 x23 -1 x12 x10 x23 +1 x11 x27 -1 x12 x11 x27 +1 x13 x31 -1 x12 x13 x31 +1 x14 x32 -1 x12 x14 x32 +1 x15 x33 -1 x12 x15 x33 = 2;
-1 x13 +1 x13 x1 x6 +1 x13 x9 x19 +1 x13 x10 x24 +1 x13 x11 x28 +1 x13 x12 x31 +1 x13 x14 x34 +1 x13 x15 x35 = 0;
+2 x13 +1 x1 x6 -1 x13 x1 x6 +1 x9 x19 -1 x13 x9 x19 +1 x10 x24 -1 x13 x10 x24 +1 x11 x28 -1 x13 x11 x28 +1 x12 x31 -1 x13 x12 x31 +1 x14 x34 -1 x13 x14 x34 +1 x15 x35 -1 x13 x15 x35 = 2;
-1 x14 +1 x14 x1 x7 +1 x14 x9 x20 +1 x14 x10 x25 +1 x14 x11 x29 +1 x14 x12 x32 +1 x14 x13 x34 +1 x14 x15 x36 = 0;
+2 x14 +1 x1 x7 -1 x14 x1 x7 +1 x9 x20 -1 x14 x9 x20 +1 x10 x25 -1 x14 x10 x25 +1 x11 x29 -1 x14 x11 x29 +1 x12 x32 -1 x14 x12 x32 +1 x13 x34 -1 x14 x13 x34 +1 x15 x36 -1 x14 x15 x36 = 2;
-1 x15 +1 x15 x1 x8 +1 x15 x9 x21 +1 x15 x10 x26 +1 x15 x11 x30 +1 x15 x12 x33 +1 x15 x13 x35 +1 x15 x14 x36 = 0;
+2 x15 +1 x1 x8 -1 x15 x1 x8 +1 x9 x21 -1 x15 x9 x21 +1 x10 x26 -1 x15 x10 x26 +1 x11 x30 -1 x15 x11 x30 +1 x12 x33 -1 x15 x12 x33 +1 x13 x35 -1 x15 x13 x35 +1 x14 x36 -1 x15 x14 x36 = 2;
-1 x16 +1 x16 x2 x3 +1 x16 x9 x10 +1 x16 x17 x22 +1 x16 x18 x23 +1 x16 x19 x24 +1 x16 x20 x25 +1 x16 x21 x26 = 0;
+2 x16 +1 x2 x3 -1 x16 x2 x3 +1 x9 x10 -1 x16 x9 x10 +1 x17 x22 -1 x16 x17 x22 +1 x18 x23 -1 x16 x18 x23 +1 x19 x24 -1 x16 x19 x24 +1 x20 x25 -1 x16 x20 x25 +1 x21 x26 -1 x16 x21 x26 = 2;
-1 x17 +1 x17 x2 x4 +1 x17 x9 x11 +1 x17 x16 x22 +1 x17 x18 x27 +1 x17 x19 x28 +1 x17 x20 x29 +1 x17 x21 x30 = 0;
+2 x17 +1 x2 x4 -1 x17 x2 x4 +1 x9 x11 -1 x17 x9 x11 +1 x16 x22 -1 x17 x16 x22 +1 x18 x27 -1 x17 x18 x27 +1 x19 x28 -1 x17 x19 x28 +1 x20 x29 -1 x17 x20 x29 +1 x21 x30 -1 x17 x21 x30 = 2;
-1 x18 +1 x18 x2 x5 +1 x18 x9 x12 +1 x18 x16 x23 +1 x18 x17 x27 +1 x18 x19 x31 +1 x18 x20 x32 +1 x18 x21 x33 = 0;
+2 x18 +1 x2 x5 -1 x18 x2 x5 +1 x9 x12 -1 x18 x9 x12 +1 x16 x23 -1 x18 x16 x23 +1 x17 x27 -1 x18 x17 x27 +1 x19 x31 -1 x18 x19 x31 +1 x20 x32 -1 x18 x20 x32 +1 x21 x33 -1 x18 x21 x33 = 2;
-1 x19 +1 x19 x2 x6 +1 x19 x9 x13 +1 x19 x16 x24 +1 x19 x17 x28 +1 x19 x18 x31 +1 x19 x20 x34 +1 x19 x21 x35 = 0;
+2 x19 +1 x2 x6 -1 x19 x2 x6 +1 x9 x13 -1 x19 x9 x13 +1 x16 x24 -1 x19 x16 x24 +1 x17 x28 -1 x19 x17 x28 +1 x18 x31 -1 x19 x18 x31 +1 x20 x34 -1 x19 x20 x34 +1 x21 x35 -1 x19 x21 x35 = 2;
-1 x20 +1 x20 x2 x7 +1 x20 x9 x14 +1 x20 x16 x25 +1 x20 x17 x29 +1 x20 x18 x32 +1 x20 x19 x34 +1 x20 x21 x36 = 0;
+2 x20 +1 x2 x7 -1 x20 x2 x7 +1 x9 x14 -1 x20 x9 x14 +1 x16 x25 -1 x20 x16 x25 +1 x17 x29 -1 x20 x17 x29 +1 x18 x32 -1 x20 x18 x32 +1 x19 x34 -1 x20 x19 x34 +1 x21 x36 -1 x20 x21 x36 = 2;
-1 x21 +1 x21 x2 x8 +1 x21 x9 x15 +1 x21 x16 x26 +1 x21 x17 x30 +1 x21 x18 x33 +1 x21 x19 x35 +1 x21 x20 x36 = 0;
+2 x21 +1 x2 x8 -1 x21 x2 x8 +1 x9 x15 -1 x21 x9 x15 +1 x16 x26 -1 x21 x16 x26 +1 x17 x30 -1 x21 x17 x30 +1 x18 x33 -1 x21 x18 x33 +1 x19 x35 -1 x21 x19 x35 +1 x20 x36 -1 x21 x20 x36 = 2;
-1 x22 +1 x22 x3 x4 +1 x22 x10 x11 +1 x22 x16 x17 +1 x22 x23 x27 +1 x22 x24 x28 +1 x22 x25 x29 +1 x22 x26 x30 = 0;
+2 x22 +1 x3 x4 -1 x22 x3 x4 +1 x10 x11 -1 x22 x10 x11 +1 x16 x17 -1 x22 x16 x17 +1 x23 x27 -1 x22 x23 x27 +1 x24 x28 -1 x22 x24 x28 +1 x25 x29 -1 x22 x25 x29 +1 x26 x30 -1 x22 x26 x30 = 2;
-1 x23 +1 x23 x3 x5 +1 x23 x10 x12 +1 x23 x16 x18 +1 x23 x22 x27 +1 x23 x24 x31 +1 x23 x25 x32 +1 x23 x26 x33 = 0;
+2 x23 +1 x3 x5 -1 x23 x3 x5 +1 x10 x12 -1 x23 x10 x12 +1 x16 x18 -1 x23 x16 x18 +1 x22 x27 -1 x23 x22 x27 +1 x24 x31 -1 x23 x24 x31 +1 x25 x32 -1 x23 x25 x32 +1 x26 x33 -1 x23 x26 x33 = 2;
-1 x24 +1 x24 x3 x6 +1 x24 x10 x13 +1 x24 x16 x19 +1 x24 x22 x28 +1 x24 x23 x31 +1 x24 x25 x34 +1 x24 x26 x35 = 0;
+2 x24 +1 x3 x6 -1 x24 x3 x6 +1 x10 x13 -1 x24 x10 x13 +1 x16 x19 -1 x24 x16 x19 +1 x22 x28 -1 x24 x22 x28 +1 x23 x31 -1 x24 x23 x31 +1 x25 x34 -1 x24 x25 x34 +1 x26 x35 -1 x24 x26 x35 = 2;
-1 x25 +1 x25 x3 x7 +1 x25 x10 x14 +1 x25 x16 x20 +1 x25 x22 x29 +1 x25 x23 x32 +1 x25 x24 x34 +1 x25 x26 x36 = 0;
+2 x25 +1 x3 x7 -1 x25 x3 x7 +1 x10 x14 -1 x25 x10 x14 +1 x16 x20 -1 x25 x16 x20 +1 x22 x29 -1 x25 x22 x29 +1 x23 x32 -1 x25 x23 x32 +1 x24 x34 -1 x25 x24 x34 +1 x26 x36 -1 x25 x26 x36 = 2;
-1 x26 +1 x26 x3 x8 +1 x26 x10 x15 +1 x26 x16 x21 +1 x26 x22 x30 +1 x26 x23 x33 +1 x26 x24 x35 +1 x26 x25 x36 = 0;
+2 x26 +1 x3 x8 -1 x26 x3 x8 +1 x10 x15 -1 x26 x10 x15 +1 x16 x21 -1 x26 x16 x21 +1 x22 x30 -1 x26 x22 x30 +1 x23 x33 -1 x26 x23 x33 +1 x24 x35 -1 x26 x24 x35 +1 x25 x36 -1 x26 x25 x36 = 2;
-1 x27 +1 x27 x4 x5 +1 x27 x11 x12 +1 x27 x17 x18 +1 x27 x22 x23 +1 x27 x28 x31 +1 x27 x29 x32 +1 x27 x30 x33 = 0;
+2 x27 +1 x4 x5 -1 x27 x4 x5 +1 x11 x12 -1 x27 x11 x12 +1 x17 x18 -1 x27 x17 x18 +1 x22 x23 -1 x27 x22 x23 +1 x28 x31 -1 x27 x28 x31 +1 x29 x32 -1 x27 x29 x32 +1 x30 x33 -1 x27 x30 x33 = 2;
-1 x28 +1 x28 x4 x6 +1 x28 x11 x13 +1 x28 x17 x19 +1 x28 x22 x24 +1 x28 x27 x31 +1 x28 x29 x34 +1 x28 x30 x35 = 0;
+2 x28 +1 x4 x6 -1 x28 x4 x6 +1 x11 x13 -1 x28 x11 x13 +1 x17 x19 -1 x28 x17 x19 +1 x22 x24 -1 x28 x22 x24 +1 x27 x31 -1 x28 x27 x31 +1 x29 x34 -1 x28 x29 x34 +1 x30 x35 -1 x28 x30 x35 = 2;
-1 x29 +1 x29 x4 x7 +1 x29 x11 x14 +1 x29 x17 x20 +1 x29 x22 x25 +1 x29 x27 x32 +1 x29 x28 x34 +1 x29 x30 x36 = 0;
+2 x29 +1 x4 x7 -1 x29 x4 x7 +1 x11 x14 -1 x29 x11 x14 +1 x17 x20 -1 x29 x17 x20 +1 x22 x25 -1 x29 x22 x25 +1 x27 x32 -1 x29 x27 x32 +1 x28 x34 -1 x29 x28 x34 +1 x30 x36 -1 x29 x30 x36 = 2;
-1 x30 +1 x30 x4 x8 +1 x30 x11 x15 +1 x30 x17 x21 +1 x30 x22 x26 +1 x30 x27 x33 +1 x30 x28 x35 +1 x30 x29 x36 = 0;
+2 x30 +1 x4 x8 -1 x30 x4 x8 +1 x11 x15 -1 x30 x11 x15 +1 x17 x21 -1 x30 x17 x21 +1 x22 x26 -1 x30 x22 x26 +1 x27 x33 -1 x30 x27 x33 +1 x28 x35 -1 x30 x28 x35 +1 x29 x36 -1 x30 x29 x36 = 2;
-1 x31 +1 x31 x5 x6 +1 x31 x12 x13 +1 x31 x18 x19 +1 x31 x23 x24 +1 x31 x27 x28 +1 x31 x32 x34 +1 x31 x33 x35 = 0;
+2 x31 +1 x5 x6 -1 x31 x5 x6 +1 x12 x13 -1 x31 x12 x13 +1 x18 x19 -1 x31 x18 x19 +1 x23 x24 -1 x31 x23 x24 +1 x27 x28 -1 x31 x27 x28 +1 x32 x34 -1 x31 x32 x34 +1 x33 x35 -1 x31 x33 x35 = 2;
-1 x32 +1 x32 x5 x7 +1 x32 x12 x14 +1 x32 x18 x20 +1 x32 x23 x25 +1 x32 x27 x29 +1 x32 x31 x34 +1 x32 x33 x36 = 0;
+2 x32 +1 x5 x7 -1 x32 x5 x7 +1 x12 x14 -1 x32 x12 x14 +1 x18 x20 -1 x32 x18 x20 +1 x23 x25 -1 x32 x23 x25 +1 x27 x29 -1 x32 x27 x29 +1 x31 x34 -1 x32 x31 x34 +1 x33 x36 -1 x32 x33 x36 = 2;
-1 x33 +1 x33 x5 x8 +1 x33 x12 x15 +1 x33 x18 x21 +1 x33 x23 x26 +1 x33 x27 x30 +1 x33 x31 x35 +1 x33 x32 x36 = 0;
+2 x33 +1 x5 x8 -1 x33 x5 x8 +1 x12 x15 -1 x33 x12 x15 +1 x18 x21 -1 x33 x18 x21 +1 x23 x26 -1 x33 x23 x26 +1 x27 x30 -1 x33 x27 x30 +1 x31 x35 -1 x33 x31 x35 +1 x32 x36 -1 x33 x32 x36 = 2;
-1 x34 +1 x34 x6 x7 +1 x34 x13 x14 +1 x34 x19 x20 +1 x34 x24 x25 +1 x34 x28 x29 +1 x34 x31 x32 +1 x34 x35 x36 = 0;
+2 x34 +1 x6 x7 -1 x34 x6 x7 +1 x13 x14 -1 x34 x13 x14 +1 x19 x20 -1 x34 x19 x20 +1 x24 x25 -1 x34 x24 x25 +1 x28 x29 -1 x34 x28 x29 +1 x31 x32 -1 x34 x31 x32 +1 x35 x36 -1 x34 x35 x36 = 2;
-1 x35 +1 x35 x6 x8 +1 x35 x13 x15 +1 x35 x19 x21 +1 x35 x24 x26 +1 x35 x28 x30 +1 x35 x31 x33 +1 x35 x34 x36 = 0;
+2 x35 +1 x6 x8 -1 x35 x6 x8 +1 x13 x15 -1 x35 x13 x15 +1 x19 x21 -1 x35 x19 x21 +1 x24 x26 -1 x35 x24 x26 +1 x28 x30 -1 x35 x28 x30 +1 x31 x33 -1 x35 x31 x33 +1 x34 x36 -1 x35 x34 x36 = 2;
-1 x36 +1 x36 x7 x8 +1 x36 x14 x15 +1 x36 x20 x21 +1 x36 x25 x26 +1 x36 x29 x30 +1 x36 x32 x33 +1 x36 x34 x35 = 0;
+2 x36 +1 x7 x8 -1 x36 x7 x8 +1 x14 x15 -1 x36 x14 x15 +1 x20 x21 -1 x36 x20 x21 +1 x25 x26 -1 x36 x25 x26 +1 x29 x30 -1 x36 x29 x30 +1 x32 x33 -1 x36 x32 x33 +1 x34 x35 -1 x36 x34 x35 = 2;
+1 x1 +1 x2 +1 x3 +1 x4 +1 x5 +1 x6 +1 x7 +1 x8 = 4;
+1 x1 +1 x9 +1 x10 +1 x11 +1 x12 +1 x13 +1 x14 +1 x15 = 4;
+1 x2 +1 x9 +1 x16 +1 x17 +1 x18 +1 x19 +1 x20 +1 x21 = 4;
+1 x3 +1 x10 +1 x16 +1 x22 +1 x23 +1 x24 +1 x25 +1 x26 = 4;
+1 x4 +1 x11 +1 x17 +1 x22 +1 x27 +1 x28 +1 x29 +1 x30 = 4;
+1 x5 +1 x12 +1 x18 +1 x23 +1 x27 +1 x31 +1 x32 +1 x33 = 4;
+1 x6 +1 x13 +1 x19 +1 x24 +1 x28 +1 x31 +1 x34 +1 x35 = 4;
+1 x7 +1 x14 +1 x20 +1 x25 +1 x29 +1 x32 +1 x34 +1 x36 = 4;
+1 x8 +1 x15 +1 x21 +1 x26 +1 x30 +1 x33 +1 x35 +1 x36 = 4;
